NAME : PR107A.51537.tour
COMMENT : Cost = 0_51537
COMMENT : Found by LKH [Keld Helsgaun] Sun Sep 17 16:52:42 2017
TYPE : TOUR
DIMENSION : 107
TOUR_SECTION
1
3
8
9
17
20
23
26
32
35
36
33
31
34
37
42
39
40
43
50
53
54
51
52
49
46
45
48
47
44
41
38
60
82
83
80
77
76
61
74
62
73
71
70
66
63
64
67
65
68
69
72
75
78
79
81
84
59
86
87
85
88
90
93
94
57
96
97
98
100
103
99
101
56
104
55
106
107
105
102
95
92
89
91
58
29
30
27
28
25
22
21
24
19
16
15
18
14
13
12
11
10
7
5
2
6
4
-1
EOF
